width = 22;

n_circuits = 16;

circuit_x = array1d(1..16, [3, 3, 3, 3, 3, 3, 3, 3, 3, 3, 3, 3, 3, 4, 4, 6]);

circuit_y = array1d(1..16, [3, 4, 5, 6, 7, 8, 9, 10, 11, 12, 13, 14, 22, 3, 19,
    4]);

opt_height = 22;

max_y = 22;

